25		
1	40	50
2	25	85
3	22	75
4	22	85
5	20	80
6	20	85
7	18	75
8	15	75
9	15	80
10	10	35
11	10	40
12	8	40
13	8	45
14	5	35
15	5	45
16	2	40
17	0	40
18	0	45
19	44	5
20	42	10
21	42	15
22	40	5
23	40	15
24	38	5
25	38	15
